
(set-logic HORN)
(declare-fun Z_284 () Int)
(declare-fun S_100 (Int) Int)
(declare-datatypes ((Bool_52 0)) (((false_52) (true_52))))
(declare-fun diseqBool_21 (Bool_52 Bool_52) Bool)
(declare-fun isfalse_21 (Bool_52) Bool)
(declare-fun istrue_21 (Bool_52) Bool)
(assert (isfalse_21 false_52))
(assert (istrue_21 true_52))
(assert (diseqBool_21 false_52 true_52))
(assert (diseqBool_21 true_52 false_52))
(declare-fun and_52 (Bool_52 Bool_52 Bool_52) Bool)
(declare-fun or_52 (Bool_52 Bool_52 Bool_52) Bool)
(declare-fun hence_52 (Bool_52 Bool_52 Bool_52) Bool)
(declare-fun not_52 (Bool_52 Bool_52) Bool)
(assert (and_52 false_52 false_52 false_52))
(assert (and_52 false_52 true_52 false_52))
(assert (and_52 false_52 false_52 true_52))
(assert (and_52 true_52 true_52 true_52))
(assert (or_52 false_52 false_52 false_52))
(assert (or_52 true_52 true_52 false_52))
(assert (or_52 true_52 false_52 true_52))
(assert (or_52 true_52 true_52 true_52))
(assert (hence_52 true_52 false_52 false_52))
(assert (hence_52 false_52 true_52 false_52))
(assert (hence_52 true_52 false_52 true_52))
(assert (hence_52 true_52 true_52 true_52))
(assert (not_52 true_52 false_52))
(assert (not_52 false_52 true_52))
(declare-fun diseqInt (Int Int) Bool)
(declare-fun projS_97 (Int Int) Bool)
(declare-fun isZ_100 (Int) Bool)
(declare-fun isS_100 (Int) Bool)
(assert (forall ((x_2807 Int))
	(projS_97 x_2807 (S_100 x_2807))))
(assert (isZ_100 Z_284))
(assert (forall ((x_2809 Int))
	(isS_100 (S_100 x_2809))))
(assert (forall ((x_2810 Int))
	(diseqInt Z_284 (S_100 x_2810))))
(assert (forall ((x_2811 Int))
	(diseqInt (S_100 x_2811) Z_284)))
(assert (forall ((x_2812 Int) (x_2813 Int))
	(=> (diseqInt x_2812 x_2813) (diseqInt (S_100 x_2812) (S_100 x_2813)))))
(declare-datatypes ((list_47 0)) (((nil_47) (cons_47 (head_94 Int) (tail_94 list_47)))))
(declare-fun diseqlist_47 (list_47 list_47) Bool)
(declare-fun head_95 (Int list_47) Bool)
(declare-fun tail_95 (list_47 list_47) Bool)
(declare-fun isnil_47 (list_47) Bool)
(declare-fun iscons_47 (list_47) Bool)
(assert (forall ((x_2815 Int) (x_2816 list_47))
	(head_95 x_2815 (cons_47 x_2815 x_2816))))
(assert (forall ((x_2815 Int) (x_2816 list_47))
	(tail_95 x_2816 (cons_47 x_2815 x_2816))))
(assert (isnil_47 nil_47))
(assert (forall ((x_2818 Int) (x_2819 list_47))
	(iscons_47 (cons_47 x_2818 x_2819))))
(assert (forall ((x_2820 Int) (x_2821 list_47))
	(diseqlist_47 nil_47 (cons_47 x_2820 x_2821))))
(assert (forall ((x_2822 Int) (x_2823 list_47))
	(diseqlist_47 (cons_47 x_2822 x_2823) nil_47)))
(assert (forall ((x_2824 Int) (x_2825 list_47) (x_2826 Int) (x_2827 list_47))
	(=> (diseqInt x_2824 x_2826) (diseqlist_47 (cons_47 x_2824 x_2825) (cons_47 x_2826 x_2827)))))
(assert (forall ((x_2824 Int) (x_2825 list_47) (x_2826 Int) (x_2827 list_47))
	(=> (diseqlist_47 x_2825 x_2827) (diseqlist_47 (cons_47 x_2824 x_2825) (cons_47 x_2826 x_2827)))))
(declare-fun x_2779 (Bool_52 Int Int) Bool)
(assert (forall ((x_2786 Bool_52) (y_226 Int) (x_2781 Int))
	(=> (x_2779 x_2786 x_2781 y_226) (x_2779 x_2786 (S_100 x_2781) (S_100 y_226)))))
(assert (forall ((x_2781 Int))
	(x_2779 false_52 (S_100 x_2781) Z_284)))
(assert (forall ((z_285 Int))
	(x_2779 false_52 Z_284 (S_100 z_285))))
(assert (x_2779 true_52 Z_284 Z_284))
(declare-fun elem_6 (Bool_52 Int list_47) Bool)
(assert (forall ((z_286 Int) (xs_82 list_47) (x_2782 Int))
	(=> (x_2779 true_52 x_2782 z_286) (elem_6 true_52 x_2782 (cons_47 z_286 xs_82)))))
(assert (forall ((x_2794 Bool_52) (z_286 Int) (xs_82 list_47) (x_2782 Int))
	(=> (and (elem_6 x_2794 x_2782 xs_82) (x_2779 false_52 x_2782 z_286)) (elem_6 x_2794 x_2782 (cons_47 z_286 xs_82)))))
(assert (forall ((x_2782 Int))
	(elem_6 false_52 x_2782 nil_47)))
(declare-fun x_2783 (list_47 list_47 list_47) Bool)
(assert (forall ((x_2798 list_47) (z_287 Int) (xs_83 list_47) (y_228 list_47))
	(=> (x_2783 x_2798 xs_83 y_228) (x_2783 (cons_47 z_287 x_2798) (cons_47 z_287 xs_83) y_228))))
(assert (forall ((x_2799 list_47))
	(x_2783 x_2799 nil_47 x_2799)))
(assert (forall ((x_2800 list_47) (x_2785 Int) (xs_84 list_47) (ys_23 list_47))
	(=> (and true (elem_6 true_52 x_2785 ys_23) (x_2783 x_2800 xs_84 ys_23) (elem_6 false_52 x_2785 x_2800)) false)))
(check-sat)
